# Objective value = 3.0590227926591729e+02
x[0] 1
x[1] 1
x[2] 0
x[3] 0
x[4] 1
x[5] 0
x[6] 1
x[7] 0
x[8] 0
x[9] 0
x[10] 1
x[11] 1
x[12] 1
x[13] 0
x[14] 1
x[15] 0
x[16] 1
x[17] 1
x[18] 1
x[19] 1
x[20] 0
x[21] 0
x[22] 0
x[23] 1
x[24] 1
x[25] 0
x[26] 1
x[27] 0
x[28] 0
x[29] 0
x[30] 0
x[31] 1
x[32] 1
x[33] 1
x[34] 0
x[35] 0
x[36] 0
x[37] 1
x[38] 0
x[39] 0
x[40] 1
x[41] 1
x[42] 1
x[43] 0
x[44] 1
x[45] 0
x[46] 1
x[47] 1
x[48] 1
x[49] 0
x[50] 1
x[51] 1
x[52] 1
x[53] 0
x[54] 1
x[55] 0
x[56] 1
x[57] 1
x[58] 1
x[59] 0
x[60] 1
x[61] 1
x[62] 0
x[63] 1
x[64] 0
x[65] 1
x[66] 1
x[67] 0
x[68] 1
x[69] 1
x[70] 1
x[71] 0
x[72] 0
x[73] 1
x[74] 1
x[75] 1
x[76] 1
x[77] 0
x[78] 0
x[79] 1
x[80] 0
x[81] 1
x[82] 0
x[83] 0
x[84] 0
x[85] 0
x[86] 1
x[87] 0
x[88] 0
x[89] 0
x[90] 1
x[91] 1
x[92] 0
x[93] 1
x[94] 0
x[95] 0
x[96] 0
x[97] 0
x[98] 0
x[99] 1
x[100] 0
x[101] 1
x[102] 1
x[103] 0
x[104] 0
x[105] 0
x[106] 1
x[107] 0
x[108] 0
x[109] 0
x[110] 0
x[111] 0
x[112] 0
x[113] 1
x[114] 1
x[115] 1
x[116] 0
x[117] 0
x[118] 1
x[119] 0
x[120] 0
x[121] 0
x[122] 1
x[123] 1
x[124] 0
x[125] 1
x[126] 0
x[127] 0
x[128] 0
x[129] 1
x[130] 0
x[131] 1
x[132] 0
x[133] 0
x[134] 0
x[135] 0
x[136] 1
x[137] 1
x[138] 0
x[139] 0
x[140] 0
x[141] 0
x[142] 0
x[143] 0
x[144] 1
x[145] 0
x[146] 0
x[147] 1
x[148] 0
x[149] 0
x[150] 1
x[151] 0
x[152] 0
x[153] 1
x[154] 0
x[155] 0
x[156] 0
x[157] 1
x[158] 1
x[159] 0
x[160] 0
x[161] 1
x[162] 1
x[163] 0
x[164] 1
x[165] 1
x[166] 1
x[167] 1
x[168] 1
x[169] 0
x[170] 1
x[171] 0
x[172] 0
x[173] 0
x[174] 1
x[175] 1
x[176] 0
x[177] 1
x[178] 0
x[179] 1
x[180] 1
x[181] 0
x[182] 0
x[183] 1
x[184] 1
x[185] 0
x[186] 0
x[187] 0
x[188] 0
x[189] 1
x[190] 0
x[191] 0
x[192] 0
x[193] 0
x[194] 0
x[195] 1
x[196] 0
x[197] 0
x[198] 1
x[199] 1
x[200] 1
x[201] 1
x[202] 0
x[203] 0
x[204] 0
x[205] 0
x[206] 0
x[207] 1
x[208] 1
x[209] 0
x[210] 1
x[211] 1
x[212] 1
x[213] 1
x[214] 1
x[215] 0
x[216] 0
x[217] 0
x[218] 0
x[219] 1
x[220] 1
x[221] 1
x[222] 0
x[223] 0
x[224] 1
x[225] 0
x[226] 0
x[227] 1
x[228] 0
x[229] 1
x[230] 1
x[231] 1
x[232] 0
x[233] 0
x[234] 1
x[235] 1
x[236] 1
x[237] 1
x[238] 0
x[239] 1
x[240] 1
x[241] 1
x[242] 0
x[243] 0
x[244] 0
x[245] 0
x[246] 0
x[247] 0
x[248] 1
x[249] 1
x[250] 0
x[251] 0
x[252] 1
x[253] 1
x[254] 0
x[255] 1
x[256] 0
x[257] 1
x[258] 1
x[259] 1
x[260] 1
x[261] 1
x[262] 1
x[263] 0
x[264] 0
x[265] 1
x[266] 1
x[267] 0
x[268] 1
x[269] 0
x[270] 1
x[271] 0
x[272] 1
x[273] 1
x[274] 1
x[275] 0
x[276] 1
x[277] 0
x[278] 0
x[279] 0
x[280] 1
x[281] 0
x[282] 0
x[283] 0
x[284] 0
x[285] 1
x[286] 1
x[287] 1
x[288] 0
x[289] 0
x[290] 1
x[291] 0
x[292] 1
x[293] 0
x[294] 0
x[295] 1
x[296] 0
x[297] 1
x[298] 1
x[299] 0
x[300] 0
x[301] 1
x[302] 0
x[303] 1
x[304] 1
x[305] 0
x[306] 0
x[307] 1
x[308] 0
x[309] 1
x[310] 1
x[311] 0
x[312] 1
x[313] 1
x[314] 0
x[315] 0
x[316] 0
x[317] 0
x[318] 0
x[319] 1
x[320] 1
x[321] 0
x[322] 1
x[323] 0
x[324] 1
x[325] 0
x[326] 0
x[327] 0
x[328] 0
x[329] 1
x[330] 0
x[331] 0
x[332] 1
x[333] 0
x[334] 1
x[335] 1
x[336] 1
x[337] 1
x[338] 1
x[339] 1
x[340] 1
x[341] 0
x[342] 1
x[343] 1
x[344] 0
x[345] 0
x[346] 1
x[347] 0
x[348] 1
x[349] 1
x[350] 1
x[351] 1
x[352] 1
x[353] 1
x[354] 0
x[355] 1
x[356] 0
x[357] 1
x[358] 0
x[359] 0
x[360] 1
x[361] 1
x[362] 1
x[363] 0
x[364] 0
x[365] 0
x[366] 0
x[367] 1
x[368] 0
x[369] 1
x[370] 1
x[371] 0
x[372] 1
x[373] 1
x[374] 1
x[375] 1
x[376] 1
x[377] 0
x[378] 0
x[379] 1
x[380] 0
x[381] 1
x[382] 1
x[383] 1
x[384] 0
x[385] 1
x[386] 0
x[387] 1
x[388] 1
x[389] 0
x[390] 0
x[391] 0
x[392] 0
x[393] 0
x[394] 0
x[395] 1
x[396] 0
x[397] 1
x[398] 0
x[399] 0
x[400] 1
x[401] 1
x[402] 0
x[403] 0
x[404] 1
x[405] 0
x[406] 1
x[407] 1
x[408] 1
x[409] 1
x[410] 1
x[411] 0
x[412] 0
x[413] 1
x[414] 0
x[415] 0
x[416] 1
x[417] 0
x[418] 0
x[419] 0
x[420] 1
x[421] 1
x[422] 1
x[423] 0
x[424] 0
x[425] 0
x[426] 0
x[427] 1
x[428] 0
x[429] 1
x[430] 1
x[431] 0
x[432] 1
x[433] 1
x[434] 0
x[435] 0
x[436] 1
x[437] 1
x[438] 1
x[439] 1
x[440] 1
x[441] 1
x[442] 0
x[443] 0
x[444] 0
x[445] 1
x[446] 1
x[447] 0
x[448] 1
x[449] 0
x[450] 0
x[451] 0
x[452] 1
x[453] 1
x[454] 1
x[455] 1
x[456] 0
x[457] 1
x[458] 0
x[459] 0
x[460] 0
x[461] 1
x[462] 1
x[463] 1
x[464] 1
x[465] 1
x[466] 0
x[467] 1
x[468] 1
x[469] 0
x[470] 0
x[471] 0
x[472] 1
x[473] 0
x[474] 0
x[475] 1
x[476] 1
x[477] 0
x[478] 1
x[479] 0
x[480] 1
x[481] 0
x[482] 1
x[483] 1
x[484] 0
x[485] 1
x[486] 0
x[487] 0
x[488] 0
x[489] 1
x[490] 0
x[491] 1
x[492] 1
x[493] 0
x[494] 0
x[495] 1
x[496] 0
x[497] 0
x[498] 0
x[499] 0
x[500] 0
x[501] 0
x[502] 0
x[503] 1
x[504] 1
x[505] 0
x[506] 1
x[507] 0
x[508] 1
x[509] 0
x[510] 1
x[511] 0
x[512] 1
x[513] 1
x[514] 1
x[515] 1
x[516] 1
x[517] 0
x[518] 0
x[519] 0
x[520] 1
x[521] 0
x[522] 1
x[523] 1
x[524] 0
x[525] 1
x[526] 0
x[527] 0
x[528] 1
x[529] 1
x[530] 1
x[531] 1
x[532] 0
x[533] 1
x[534] 0
x[535] 0
x[536] 0
x[537] 0
x[538] 0
x[539] 1
x[540] 1
x[541] 0
x[542] 1
x[543] 0
x[544] 0
x[545] 1
x[546] 0
x[547] 0
x[548] 1
x[549] 1
x[550] 1
x[551] 0
x[552] 0
x[553] 1
x[554] 0
x[555] 1
x[556] 1
x[557] 1
x[558] 1
x[559] 1
x[560] 0
x[561] 0
x[562] 0
x[563] 0
x[564] 1
x[565] 1
x[566] 0
x[567] 0
x[568] 1
x[569] 1
x[570] 0
x[571] 1
x[572] 0
x[573] 1
x[574] 0
x[575] 0
x[576] 0
x[577] 1
x[578] 0
x[579] 1
x[580] 0
x[581] 0
x[582] 1
x[583] 1
x[584] 1
x[585] 0
x[586] 0
x[587] 1
x[588] 0
x[589] 1
x[590] 1
x[591] 0
x[592] 0
x[593] 1
x[594] 1
x[595] 0
x[596] 0
x[597] 0
x[598] 0
x[599] 0
x[600] 0
x[601] 0
x[602] 0
x[603] 0
x[604] 0
x[605] 1
x[606] 1
x[607] 1
x[608] 0
x[609] 0
x[610] 0
x[611] 0
x[612] 1
x[613] 0
x[614] 1
x[615] 0
x[616] 1
x[617] 0
x[618] 0
x[619] 0
x[620] 1
x[621] 1
x[622] 0
x[623] 1
x[624] 1
x[625] 0
x[626] 0
x[627] 1
x[628] 1
x[629] 0
x[630] 0
x[631] 1
x[632] 1
x[633] 0
x[634] 0
x[635] 1
x[636] 0
x[637] 0
x[638] 0
x[639] 1
x[640] 0
x[641] 0
x[642] 0
x[643] 1
x[644] 0
x[645] 1
x[646] 0
x[647] 1
x[648] 0
x[649] 1
x[650] 0
x[651] 1
x[652] 0
x[653] 0
x[654] 0
x[655] 0
x[656] 0
x[657] 1
x[658] 0
x[659] 0
x[660] 0
x[661] 0
x[662] 1
x[663] 0
x[664] 0
x[665] 1
x[666] 1
x[667] 0
x[668] 1
x[669] 1
x[670] 0
x[671] 0
x[672] 0
x[673] 0
x[674] 0
x[675] 0
x[676] 1
x[677] 0
x[678] 0
x[679] 0
x[680] 1
x[681] 0
x[682] 1
x[683] 0
x[684] 1
x[685] 0
x[686] 0
x[687] 1
x[688] 1
x[689] 0
x[690] 1
x[691] 1
x[692] 0
x[693] 1
x[694] 0
x[695] 1
x[696] 1
x[697] 0
x[698] 1
x[699] 0
x[700] 1
x[701] 0
x[702] 1
x[703] 1
x[704] 0
x[705] 1
x[706] 0
x[707] 0
x[708] 1
x[709] 0
x[710] 1
x[711] 1
x[712] 1
x[713] 0
x[714] 1
x[715] 1
x[716] 0
x[717] 0
x[718] 0
x[719] 1
x[720] 1
x[721] 0
x[722] 1
x[723] 1
x[724] 1
x[725] 0
x[726] 0
x[727] 0
x[728] 0
x[729] 1
x[730] 0
x[731] 0
x[732] 0
x[733] 1
x[734] 1
x[735] 0
x[736] 0
x[737] 0
x[738] 1
x[739] 1
x[740] 0
x[741] 0
x[742] 1
x[743] 1
x[744] 0
x[745] 0
x[746] 1
x[747] 1
x[748] 0
x[749] 1
x[750] 0
x[751] 1
x[752] 1
x[753] 0
x[754] 0
x[755] 1
x[756] 0
x[757] 0
x[758] 0
x[759] 0
x[760] 0
x[761] 1
x[762] 1
x[763] 1
x[764] 1
x[765] 0
x[766] 0
x[767] 0
x[768] 0
x[769] 1
x[770] 1
x[771] 0
x[772] 1
x[773] 0
x[774] 1
x[775] 0
x[776] 1
x[777] 0
x[778] 0
x[779] 1
x[780] 0
x[781] 1
x[782] 0
x[783] 0
x[784] 1
x[785] 0
x[786] 0
x[787] 1
x[788] 1
x[789] 0
x[790] 1
x[791] 1
x[792] 1
x[793] 1
x[794] 1
x[795] 0
x[796] 1
x[797] 0
x[798] 0
x[799] 1
x[800] 0
x[801] 1
x[802] 1
x[803] 0
x[804] 1
x[805] 0
x[806] 0
x[807] 0
x[808] 1
x[809] 1
x[810] 0
x[811] 0
x[812] 0
x[813] 1
x[814] 0
x[815] 1
x[816] 1
x[817] 0
x[818] 0
x[819] 0
x[820] 1
x[821] 1
x[822] 0
x[823] 1
x[824] 1
x[825] 1
x[826] 1
x[827] 0
x[828] 1
x[829] 0
x[830] 0
x[831] 1
x[832] 1
x[833] 1
x[834] 0
x[835] 0
x[836] 1
x[837] 0
x[838] 0
x[839] 0
x[840] 0
x[841] 0
x[842] 1
x[843] 1
x[844] 0
x[845] 0
x[846] 1
x[847] 1
x[848] 0
x[849] 1
x[850] 1
x[851] 0
x[852] 1
x[853] 0
x[854] 1
x[855] 1
x[856] 0
x[857] 0
x[858] 0
x[859] 1
x[860] 0
x[861] 1
x[862] 0
x[863] 0
x[864] 1
x[865] 0
x[866] 0
x[867] 1
x[868] 0
x[869] 0
x[870] 0
x[871] 0
x[872] 1
x[873] 1
x[874] 1
x[875] 0
x[876] 0
x[877] 0
x[878] 0
x[879] 1
x[880] 1
x[881] 0
x[882] 1
x[883] 1
x[884] 1
x[885] 1
x[886] 0
x[887] 1
x[888] 0
x[889] 0
x[890] 1
x[891] 0
x[892] 1
x[893] 1
x[894] 0
x[895] 1
x[896] 1
x[897] 1
x[898] 0
x[899] 1
x[900] 1
x[901] 1
x[902] 1
x[903] 0
x[904] 1
x[905] 1
x[906] 0
x[907] 0
x[908] 0
x[909] 0
x[910] 1
x[911] 0
x[912] 0
x[913] 0
x[914] 1
x[915] 0
x[916] 1
x[917] 1
x[918] 0
x[919] 0
x[920] 0
x[921] 0
x[922] 1
x[923] 0
x[924] 1
x[925] 1
x[926] 0
x[927] 1
x[928] 1
x[929] 0
x[930] 0
x[931] 0
x[932] 0
x[933] 1
x[934] 1
x[935] 0
x[936] 0
x[937] 0
x[938] 1
x[939] 1
x[940] 0
x[941] 0
x[942] 0
x[943] 1
x[944] 0
x[945] 0
x[946] 0
x[947] 0
x[948] 0
x[949] 1
x[950] 0
x[951] 1
x[952] 1
x[953] 1
x[954] 0
x[955] 1
x[956] 0
x[957] 0
x[958] 1
x[959] 1
x[960] 0
x[961] 1
x[962] 1
x[963] 1
x[964] 0
x[965] 1
x[966] 0
x[967] 0
x[968] 0
x[969] 1
x[970] 1
x[971] 0
x[972] 0
x[973] 1
x[974] 1
x[975] 1
x[976] 1
x[977] 1
x[978] 1
x[979] 1
x[980] 1
x[981] 1
x[982] 0
x[983] 0
x[984] 1
x[985] 1
x[986] 0
x[987] 0
x[988] 1
x[989] 1
x[990] 1
x[991] 0
x[992] 1
x[993] 1
x[994] 1
x[995] 1
x[996] 0
x[997] 1
x[998] 1
x[999] 1
